; benchmark generated from python API
(set-info :status unknown)
(declare-fun |im(z3)| () Real)
(declare-fun |im(z2)| () Real)
(declare-fun |im(z1)| () Real)
(declare-fun |im(z0)| () Real)
(declare-fun |re(z3)| () Real)
(declare-fun |re(z2)| () Real)
(declare-fun |re(z1)| () Real)
(declare-fun |re(z0)| () Real)
(assert
 (let ((?x21 (^ |im(z3)| 2.0)))
 (let ((?x20 (^ |im(z2)| 2.0)))
 (let ((?x19 (^ |im(z1)| 2.0)))
 (let ((?x18 (^ |im(z0)| 2.0)))
 (let ((?x17 (^ |re(z3)| 2.0)))
 (let ((?x16 (^ |re(z2)| 2.0)))
 (let ((?x15 (^ |re(z1)| 2.0)))
 (let ((?x14 (^ |re(z0)| 2.0)))
 (= (+ ?x14 ?x15 ?x16 ?x17 ?x18 ?x19 ?x20 ?x21) 1.0))))))))))
(assert
 (let ((?x45 (+ (+ (* (- (/ 4878048780487803.0 250000000000000.0)) (^ |im(z0)| 4.0)) (* (- (/ 4878048780487803.0 250000000000000.0)) (^ |re(z0)| 4.0))) (* (* (- (/ 4878048780487803.0 125000000000000.0)) (^ |im(z0)| 2.0)) (^ |re(z0)| 2.0)))))
 (> ?x45 (/ 1.0 1000000.0))))
(assert
 (let ((?x45 (+ (+ (* (- (/ 4878048780487803.0 250000000000000.0)) (^ |im(z0)| 4.0)) (* (- (/ 4878048780487803.0 250000000000000.0)) (^ |re(z0)| 4.0))) (* (* (- (/ 4878048780487803.0 125000000000000.0)) (^ |im(z0)| 2.0)) (^ |re(z0)| 2.0)))))
(> ?x45 (/ 1.0 1000000.0))))
(check-sat)
